# LAMMPS input script by Simon Gravelle
# This input is part of a tutorial from https://lammpstutorials.github.io
# Last tested using the 2Aug2023 stable LAMMPS version
# This file was released under the GNU general public license v3.0

mass 1 15.9994
mass 2 1.008

pair_coeff 1 1 0.185199 3.1589
pair_coeff 2 2 0.0 0.0

bond_coeff 1 0 0.9572

angle_coeff 1 0 104.52
